;symbolic execution tree
(push)
(assert (le x3 java.lang.StringBuffer))
(check-sat)
(push)
(assert (le x1 com.lowagie.text.pdf.ByteBuffer))
(check-sat)
(push)
(assert (le x3 java.lang.StringBuffer))
(check-sat)
(push)
(assert (le x1 com.lowagie.text.pdf.ByteBuffer))
(check-sat)
(push)
(assert (le x3 java.lang.StringBuffer))
(check-sat)
(pop)
(push)
(assert (not (le x3 java.lang.StringBuffer)))
(check-sat)
(pop)
(pop)
(push)
(assert (not (le x1 com.lowagie.text.pdf.ByteBuffer)))
(check-sat)
(pop)
(push)
(assert (le x3 java.lang.StringBuffer))
(check-sat)
(push)
(assert (le x1 com.lowagie.text.pdf.ByteBuffer))
(check-sat)
(pop)
(push)
(assert (not (le x1 com.lowagie.text.pdf.ByteBuffer)))
(check-sat)
(pop)
(pop)
(push)
(assert (not (le x3 java.lang.StringBuffer)))
(check-sat)
(pop)
(push)
(assert (le x0 com.lowagie.text.pdf.PdfDictionary))
(check-sat)
(pop)
(push)
(assert (not (le x0 com.lowagie.text.pdf.PdfDictionary)))
(check-sat)
(pop)
(pop)
(push)
(assert (not (le x3 java.lang.StringBuffer)))
(check-sat)
(pop)
(push)
(assert (le x0 java.lang.StringBuffer))
(check-sat)
(push)
(assert (le x0 java.lang.StringBuffer))
(check-sat)
(pop)
(push)
(assert (not (le x0 java.lang.StringBuffer)))
(check-sat)
(pop)
(pop)
(push)
(assert (not (le x0 java.lang.StringBuffer)))
(check-sat)
(pop)
(pop)
(push)
(assert (not (le x1 com.lowagie.text.pdf.ByteBuffer)))
(check-sat)
(pop)
(push)
(assert (le x1 java.lang.StringBuffer))
(check-sat)
(pop)
(push)
(assert (not (le x1 java.lang.StringBuffer)))
(check-sat)
(push)
(assert (le x3 java.lang.StringBuffer))
(check-sat)
(push)
(assert (le x3 java.lang.StringBuffer))
(check-sat)
(pop)
(push)
(assert (not (le x3 java.lang.StringBuffer)))
(check-sat)
(pop)
(pop)
(push)
(assert (not (le x3 java.lang.StringBuffer)))
(check-sat)
(pop)
(pop)
(push)
(assert (le x0 java.util.HashMap))
(check-sat)
(push)
(assert (le x2 java.lang.Object))
(check-sat)
(pop)
(push)
(assert (not (le x2 java.lang.Object)))
(check-sat)
(push)
(assert (not (le x2 com.lowagie.text.pdf.PdfObject)))
(check-sat)
(push)
(assert (le x0 java.util.HashMap))
(check-sat)
(pop)
(push)
(assert (not (le x0 java.util.HashMap)))
(check-sat)
(pop)
(pop)
(push)
(assert (le x2 com.lowagie.text.pdf.PdfObject))
(check-sat)
(pop)
(pop)
(push)
(assert (le x1 java.lang.String))
(check-sat)
(pop)
(push)
(assert (not (le x1 java.lang.String)))
(check-sat)
(pop)
(push)
(assert (le x1 java.lang.StringBuffer))
(check-sat)
(push)
(assert (le x3 java.lang.StringBuffer))
(check-sat)
(pop)
(push)
(assert (not (le x3 java.lang.StringBuffer)))
(check-sat)
(pop)
(pop)
(push)
(assert (not (le x1 java.lang.StringBuffer)))
(check-sat)
(pop)
(pop)
(push)
(assert (not (le x0 java.util.HashMap)))
(check-sat)
(push)
(assert (le x2 java.lang.String))
(check-sat)
(push)
(assert (le x3 java.lang.StringBuffer))
(check-sat)
(pop)
(push)
(assert (not (le x3 java.lang.StringBuffer)))
(check-sat)
(pop)
(pop)
(push)
(assert (not (le x2 java.lang.String)))
(check-sat)
(pop)
(pop)
(push)
(assert (le x0 com.lowagie.text.pdf.PdfObject))
(check-sat)
(pop)
(push)
(assert (not (le x0 com.lowagie.text.pdf.PdfObject)))
(check-sat)
(push)
(assert (le x1 java.lang.String))
(check-sat)
(push)
(assert (le x3 java.lang.StringBuffer))
(check-sat)
(pop)
(push)
(assert (not (le x3 java.lang.StringBuffer)))
(check-sat)
(pop)
(push)
(assert (le x2 com.lowagie.text.pdf.PdfObject))
(check-sat)
(pop)
(push)
(assert (not (le x2 com.lowagie.text.pdf.PdfObject)))
(check-sat)
(pop)
(pop)
(push)
(assert (not (le x1 java.lang.String)))
(check-sat)
(pop)
(pop)
(push)
(assert (le x2 java.lang.StringBuffer))
(check-sat)
(pop)
(push)
(assert (not (le x2 java.lang.StringBuffer)))
(check-sat)
(push)
(assert (le x2 java.lang.StringBuffer))
(check-sat)
(pop)
(push)
(assert (not (le x2 java.lang.StringBuffer)))
(check-sat)
(push)
(assert (le x1 com.lowagie.text.pdf.PdfName))
(check-sat)
(pop)
(push)
(assert (not (le x1 com.lowagie.text.pdf.PdfName)))
(check-sat)
(push)
(assert (le x0 java.lang.String))
(check-sat)
(pop)
(push)
(assert (not (le x0 java.lang.String)))
(check-sat)
(pop)
(push)
(assert (le x3 java.lang.StringBuffer))
(check-sat)
(pop)
(push)
(assert (not (le x3 java.lang.StringBuffer)))
(check-sat)
(pop)
(pop)
(pop)
(push)
(assert (le x0 com.lowagie.text.pdf.PdfObject))
(check-sat)
(pop)
(push)
(assert (not (le x0 com.lowagie.text.pdf.PdfObject)))
(check-sat)
(pop)
(push)
(assert (le x1 java.lang.String))
(check-sat)
(pop)
(push)
(assert (not (le x1 java.lang.String)))
(check-sat)
(push)
(assert (le x3 java.lang.StringBuffer))
(check-sat)
(pop)
(push)
(assert (not (le x3 java.lang.StringBuffer)))
(check-sat)
(pop)
(push)
(assert (le x2 java.lang.StringBuffer))
(check-sat)
(pop)
(push)
(assert (not (le x2 java.lang.StringBuffer)))
(check-sat)
(pop)
(pop)
(pop)
(push)
(assert (le x0 java.lang.StringBuffer))
(check-sat)
(push)
(assert (le x2 com.lowagie.text.pdf.PdfObject))
(check-sat)
(push)
(assert (le x0 java.lang.StringBuffer))
(check-sat)
(pop)
(push)
(assert (not (le x0 java.lang.StringBuffer)))
(check-sat)
(pop)
(push)
(assert (le x3 java.lang.StringBuffer))
(check-sat)
(pop)
(push)
(assert (not (le x3 java.lang.StringBuffer)))
(check-sat)
(pop)
(pop)
(push)
(assert (not (le x2 com.lowagie.text.pdf.PdfObject)))
(check-sat)
(pop)
(pop)
(push)
(assert (not (le x0 java.lang.StringBuffer)))
(check-sat)
(pop)
(push)
(assert (le x1 java.lang.StringBuffer))
(check-sat)
(push)
(assert (le x3 java.lang.StringBuffer))
(check-sat)
(pop)
(push)
(assert (not (le x3 java.lang.StringBuffer)))
(check-sat)
(pop)
(pop)
(push)
(assert (not (le x1 java.lang.StringBuffer)))
(check-sat)
(pop)
(push)
(assert (le x1 java.lang.Integer))
(check-sat)
(pop)
(push)
(assert (not (le x1 java.lang.Integer)))
(check-sat)
(push)
(assert (le x0 java.lang.StringBuffer))
(check-sat)
(pop)
(push)
(assert (not (le x0 java.lang.StringBuffer)))
(check-sat)
(pop)
(push)
(assert (le x0 com.lowagie.text.pdf.PdfObject))
(check-sat)
(push)
(assert (le x3 java.lang.StringBuffer))
(check-sat)
(pop)
(push)
(assert (not (le x3 java.lang.StringBuffer)))
(check-sat)
(pop)
(pop)
(push)
(assert (not (le x0 com.lowagie.text.pdf.PdfObject)))
(check-sat)
(push)
(assert (le x3 java.lang.StringBuffer))
(check-sat)
(pop)
(push)
(assert (not (le x3 java.lang.StringBuffer)))
(check-sat)
(pop)
(pop)
(push)
(assert (le x0 java.lang.String))
(check-sat)
(push)
(assert (le x3 java.lang.StringBuffer))
(check-sat)
(pop)
(push)
(assert (not (le x3 java.lang.StringBuffer)))
(check-sat)
(pop)
(push)
(assert (le x0 java.lang.String))
(check-sat)
(push)
(assert (le x2 java.lang.String))
(check-sat)
(pop)
(push)
(assert (not (le x2 java.lang.String)))
(check-sat)
(pop)
(pop)
(push)
(assert (not (le x0 java.lang.String)))
(check-sat)
(pop)
(pop)
(push)
(assert (not (le x0 java.lang.String)))
(check-sat)
(push)
(assert (le x1 java.lang.Integer))
(check-sat)
(pop)
(push)
(assert (not (le x1 java.lang.Integer)))
(check-sat)
(push)
(assert (le x3 java.lang.StringBuffer))
(check-sat)
(pop)
(push)
(assert (not (le x3 java.lang.StringBuffer)))
(check-sat)
(pop)
(pop)
(pop)
(push)
(assert (le x0 java.lang.StringBuffer))
(check-sat)
(push)
(assert (le x1 java.lang.Integer))
(check-sat)
(pop)
(push)
(assert (not (le x1 java.lang.Integer)))
(check-sat)
(pop)
(push)
(assert (le x3 java.lang.StringBuffer))
(check-sat)
(pop)
(push)
(assert (not (le x3 java.lang.StringBuffer)))
(check-sat)
(pop)
(pop)
(push)
(assert (not (le x0 java.lang.StringBuffer)))
(check-sat)
(push)
(assert (le x1 java.lang.Integer))
(check-sat)
(pop)
(push)
(assert (not (le x1 java.lang.Integer)))
(check-sat)
(push)
(assert (le x3 java.lang.StringBuffer))
(check-sat)
(pop)
(push)
(assert (not (le x3 java.lang.StringBuffer)))
(check-sat)
(pop)
(pop)
(pop)
(push)
(assert (le x0 java.lang.StringBuffer))
(check-sat)
(pop)
(push)
(assert (not (le x0 java.lang.StringBuffer)))
(check-sat)
(push)
(assert (le x1 java.lang.Integer))
(check-sat)
(pop)
(push)
(assert (not (le x1 java.lang.Integer)))
(check-sat)
(pop)
(pop)
(push)
(assert (le x2 java.lang.String))
(check-sat)
(push)
(assert (le x3 java.lang.StringBuffer))
(check-sat)
(pop)
(push)
(assert (not (le x3 java.lang.StringBuffer)))
(check-sat)
(pop)
(pop)
(push)
(assert (not (le x2 java.lang.String)))
(check-sat)
(pop)
(push)
(assert (le x1 java.lang.Integer))
(check-sat)
(pop)
(push)
(assert (not (le x1 java.lang.Integer)))
(check-sat)
(pop)
(pop)
(push)
(assert (le x1 java.lang.String))
(check-sat)
(push)
(assert (le x0 java.lang.StringBuffer))
(check-sat)
(push)
(assert (le x1 java.lang.String))
(check-sat)
(push)
(assert (le x2 java.lang.StringBuffer))
(check-sat)
(pop)
(push)
(assert (not (le x2 java.lang.StringBuffer)))
(check-sat)
(pop)
(push)
(assert (le x1 java.lang.String))
(check-sat)
(pop)
(push)
(assert (not (le x1 java.lang.String)))
(check-sat)
(pop)
(pop)
(push)
(assert (not (le x1 java.lang.String)))
(check-sat)
(pop)
(pop)
(push)
(assert (not (le x0 java.lang.StringBuffer)))
(check-sat)
(pop)
(push)
(assert (le x3 java.lang.StringBuffer))
(check-sat)
(pop)
(push)
(assert (not (le x3 java.lang.StringBuffer)))
(check-sat)
(pop)
(push)
(assert (le x2 java.lang.StringBuffer))
(check-sat)
(push)
(assert (le x2 java.lang.StringBuffer))
(check-sat)
(pop)
(push)
(assert (not (le x2 java.lang.StringBuffer)))
(check-sat)
(pop)
(pop)
(push)
(assert (not (le x2 java.lang.StringBuffer)))
(check-sat)
(push)
(assert (le x1 java.lang.String))
(check-sat)
(pop)
(push)
(assert (not (le x1 java.lang.String)))
(check-sat)
(pop)
(pop)
(push)
(assert (le x0 java.lang.String))
(check-sat)
(push)
(assert (le x0 java.lang.String))
(check-sat)
(pop)
(push)
(assert (not (le x0 java.lang.String)))
(check-sat)
(pop)
(pop)
(push)
(assert (not (le x0 java.lang.String)))
(check-sat)
(pop)
(pop)
(push)
(assert (not (le x1 java.lang.String)))
(check-sat)
(push)
(assert (le x0 java.lang.String))
(check-sat)
(push)
(assert (le x1 java.lang.String))
(check-sat)
(pop)
(push)
(assert (not (le x1 java.lang.String)))
(check-sat)
(pop)
(pop)
(push)
(assert (not (le x0 java.lang.String)))
(check-sat)
(pop)
(pop)
(pop)
(push)
(assert (not (le x3 java.lang.StringBuffer)))
(check-sat)
(push)
(assert (le x3 java.lang.StringBuffer))
(check-sat)
(pop)
(push)
(assert (not (le x3 java.lang.StringBuffer)))
(check-sat)
(push)
(assert (le x3 java.lang.StringBuffer))
(check-sat)
(pop)
(push)
(assert (not (le x3 java.lang.StringBuffer)))
(check-sat)
(pop)
(push)
(assert (le x0 jcmdline.AbstractParameter))
(check-sat)
(pop)
(push)
(assert (not (le x0 jcmdline.AbstractParameter)))
(check-sat)
(push)
(assert (le x3 java.lang.StringBuffer))
(check-sat)
(pop)
(push)
(assert (not (le x3 java.lang.StringBuffer)))
(check-sat)
(pop)
(pop)
(pop)
(push)
(assert (le x3 java.lang.StringBuffer))
(check-sat)
(pop)
(push)
(assert (not (le x3 java.lang.StringBuffer)))
(check-sat)
(push)
(assert (le x0 com.lowagie.text.pdf.PdfName))
(check-sat)
(pop)
(push)
(assert (not (le x0 com.lowagie.text.pdf.PdfName)))
(check-sat)
(push)
(assert (le x3 java.lang.StringBuffer))
(check-sat)
(pop)
(push)
(assert (not (le x3 java.lang.StringBuffer)))
(check-sat)
(push)
(assert (le x2 com.lowagie.text.pdf.PdfName))
(check-sat)
(pop)
(push)
(assert (not (le x2 com.lowagie.text.pdf.PdfName)))
(check-sat)
(pop)
(pop)
(push)
(assert (le x0 com.lowagie.text.pdf.PdfObject))
(check-sat)
(pop)
(push)
(assert (not (le x0 com.lowagie.text.pdf.PdfObject)))
(check-sat)
(pop)
(pop)
(pop)
(push)
(assert (le x0 java.lang.StringBuffer))
(check-sat)
(push)
(assert (le x0 java.lang.StringBuffer))
(check-sat)
(pop)
(push)
(assert (not (le x0 java.lang.StringBuffer)))
(check-sat)
(pop)
(pop)
(push)
(assert (not (le x0 java.lang.StringBuffer)))
(check-sat)
(push)
(assert (le x1 java.lang.StringBuffer))
(check-sat)
(pop)
(push)
(assert (not (le x1 java.lang.StringBuffer)))
(check-sat)
(pop)
(pop)
(push)
(assert (le x3 java.lang.StringBuffer))
(check-sat)
(pop)
(push)
(assert (not (le x3 java.lang.StringBuffer)))
(check-sat)
(pop)
(push)
(assert (le x3 java.lang.StringBuffer))
(check-sat)
(pop)
(push)
(assert (not (le x3 java.lang.StringBuffer)))
(check-sat)
(push)
(assert (le x1 com.lowagie.text.pdf.crypto.ARCFOUREncryption))
(check-sat)
(pop)
(push)
(assert (not (le x1 com.lowagie.text.pdf.crypto.ARCFOUREncryption)))
(check-sat)
(pop)
(push)
(assert (le x1 com.lowagie.text.pdf.ByteBuffer))
(check-sat)
(push)
(assert (le x2 java.lang.String))
(check-sat)
(pop)
(push)
(assert (not (le x2 java.lang.String)))
(check-sat)
(pop)
(pop)
(push)
(assert (not (le x1 com.lowagie.text.pdf.ByteBuffer)))
(check-sat)
(push)
(assert (le x1 com.lowagie.text.pdf.ByteBuffer))
(check-sat)
(pop)
(push)
(assert (not (le x1 com.lowagie.text.pdf.ByteBuffer)))
(check-sat)
(pop)
(push)
(assert (le x3 java.lang.StringBuffer))
(check-sat)
(pop)
(push)
(assert (not (le x3 java.lang.StringBuffer)))
(check-sat)
(pop)
(pop)
(push)
(assert (not (le x2 java.util.ArrayList)))
(check-sat)
(push)
(assert (le x0 java.lang.String))
(check-sat)
(push)
(assert (le x2 com.lowagie.text.pdf.PdfName))
(check-sat)
(pop)
(push)
(assert (not (le x2 com.lowagie.text.pdf.PdfName)))
(check-sat)
(pop)
(pop)
(push)
(assert (not (le x0 java.lang.String)))
(check-sat)
(pop)
(pop)
(push)
(assert (le x2 java.util.ArrayList))
(check-sat)
(pop)
(push)
(assert (le x3 java.lang.StringBuffer))
(check-sat)
(pop)
(push)
(assert (not (le x3 java.lang.StringBuffer)))
(check-sat)
(pop)
(pop)
(push)
(assert (le x3 java.lang.StringBuffer))
(check-sat)
(pop)
(push)
(assert (not (le x3 java.lang.StringBuffer)))
(check-sat)
(push)
(assert (le x0 com.lowagie.text.pdf.PdfName))
(check-sat)
(pop)
(push)
(assert (not (le x0 com.lowagie.text.pdf.PdfName)))
(check-sat)
(pop)
(push)
(assert (le x3 java.lang.StringBuffer))
(check-sat)
(pop)
(push)
(assert (not (le x3 java.lang.StringBuffer)))
(check-sat)
(pop)
(push)
(assert (le x0 java.lang.StringBuffer))
(check-sat)
(push)
(assert (le x3 java.lang.StringBuffer))
(check-sat)
(pop)
(push)
(assert (not (le x3 java.lang.StringBuffer)))
(check-sat)
(pop)
(pop)
(push)
(assert (not (le x0 java.lang.StringBuffer)))
(check-sat)
(pop)
(push)
(assert (le x0 java.lang.StringBuffer))
(check-sat)
(push)
(assert (le x2 java.lang.StringBuffer))
(check-sat)
(push)
(assert (le x1 java.lang.String))
(check-sat)
(pop)
(push)
(assert (not (le x1 java.lang.String)))
(check-sat)
(pop)
(push)
(assert (le x3 java.lang.StringBuffer))
(check-sat)
(pop)
(push)
(assert (not (le x3 java.lang.StringBuffer)))
(check-sat)
(pop)
(pop)
(push)
(assert (not (le x2 java.lang.StringBuffer)))
(check-sat)
(pop)
(pop)
(push)
(assert (not (le x0 java.lang.StringBuffer)))
(check-sat)
(pop)
(push)
(assert (le x0 java.lang.StringBuffer))
(check-sat)
(pop)
(push)
(assert (not (le x0 java.lang.StringBuffer)))
(check-sat)
(pop)
(pop)
(push)
(assert (le x2 java.lang.reflect.Field))
(check-sat)
(push)
(assert (le x2 java.lang.reflect.Field))
(check-sat)
(push)
(assert (le x1 com.lowagie.text.pdf.PdfName))
(check-sat)
(pop)
(push)
(assert (not (le x1 com.lowagie.text.pdf.PdfName)))
(check-sat)
(pop)
(push)
(assert (le x1 com.lowagie.text.pdf.PdfObject))
(check-sat)
(push)
(assert (le x0 java.lang.String))
(check-sat)
(pop)
(push)
(assert (not (le x0 java.lang.String)))
(check-sat)
(pop)
(pop)
(push)
(assert (not (le x1 com.lowagie.text.pdf.PdfObject)))
(check-sat)
(pop)
(pop)
(push)
(assert (not (le x2 java.lang.reflect.Field)))
(check-sat)
(pop)
(pop)
(push)
(assert (not (le x2 java.lang.reflect.Field)))
(check-sat)
(push)
(assert (le x0 com.lowagie.text.pdf.PdfObject))
(check-sat)
(push)
(assert (le x0 com.lowagie.text.pdf.PdfObject))
(check-sat)
(push)
(assert (le x3 java.lang.StringBuffer))
(check-sat)
(pop)
(push)
(assert (not (le x3 java.lang.StringBuffer)))
(check-sat)
(pop)
(pop)
(push)
(assert (not (le x0 com.lowagie.text.pdf.PdfObject)))
(check-sat)
(pop)
(pop)
(push)
(assert (not (le x0 com.lowagie.text.pdf.PdfObject)))
(check-sat)
(push)
(assert (le x1 java.lang.StringBuffer))
(check-sat)
(pop)
(push)
(assert (not (le x1 java.lang.StringBuffer)))
(check-sat)
(push)
(assert (le x0 com.lowagie.text.pdf.PdfObject))
(check-sat)
(pop)
(push)
(assert (not (le x0 com.lowagie.text.pdf.PdfObject)))
(check-sat)
(pop)
(push)
(assert (le x2 java.lang.reflect.Field))
(check-sat)
(pop)
(push)
(assert (not (le x2 java.lang.reflect.Field)))
(check-sat)
(pop)
(pop)
(push)
(assert (le x3 java.lang.StringBuffer))
(check-sat)
(pop)
(push)
(assert (not (le x3 java.lang.StringBuffer)))
(check-sat)
(pop)
(pop)
(push)
(assert (le x1 com.lowagie.text.pdf.PdfObject))
(check-sat)
(pop)
(push)
(assert (not (le x1 com.lowagie.text.pdf.PdfObject)))
(check-sat)
(pop)
(pop)
(push)
(assert (not (le x1 java.util.ArrayList)))
(check-sat)
(pop)
(push)
(assert (le x1 java.util.ArrayList))
(check-sat)
(push)
(assert (le x0 java.lang.Integer))
(check-sat)
(pop)
(push)
(assert (not (le x0 java.lang.Integer)))
(check-sat)
(push)
(assert (le x1 com.lowagie.text.pdf.PdfName))
(check-sat)
(pop)
(push)
(assert (not (le x1 com.lowagie.text.pdf.PdfName)))
(check-sat)
(pop)
(pop)
(push)
(assert (le x1 com.lowagie.text.pdf.PdfName))
(check-sat)
(pop)
(push)
(assert (not (le x1 com.lowagie.text.pdf.PdfName)))
(check-sat)
(pop)
(push)
(assert (le x0 com.lowagie.text.pdf.PdfObject))
(check-sat)
(pop)
(push)
(assert (not (le x0 com.lowagie.text.pdf.PdfObject)))
(check-sat)
(push)
(assert (le x3 java.lang.StringBuffer))
(check-sat)
(pop)
(push)
(assert (not (le x3 java.lang.StringBuffer)))
(check-sat)
(push)
(assert (le x2 java.lang.StringBuffer))
(check-sat)
(pop)
(push)
(assert (not (le x2 java.lang.StringBuffer)))
(check-sat)
(pop)
(pop)
(pop)
(push)
(assert (le x1 com.lowagie.text.pdf.PdfName))
(check-sat)
(pop)
(push)
(assert (not (le x1 com.lowagie.text.pdf.PdfName)))
(check-sat)
(pop)
(push)
(assert (le x3 java.lang.StringBuffer))
(check-sat)
(pop)
(push)
(assert (not (le x3 java.lang.StringBuffer)))
(check-sat)
(push)
(assert (le x3 java.lang.StringBuffer))
(check-sat)
(pop)
(push)
(assert (not (le x3 java.lang.StringBuffer)))
(check-sat)
(pop)
(pop)
(pop)
(push)
(assert (le x3 java.lang.StringBuffer))
(check-sat)
(pop)
(push)
(assert (not (le x3 java.lang.StringBuffer)))
(check-sat)
(pop)
(push)
(assert (le x1 java.lang.StringBuffer))
(check-sat)
(push)
(assert (le x3 java.lang.StringBuffer))
(check-sat)
(pop)
(push)
(assert (not (le x3 java.lang.StringBuffer)))
(check-sat)
(pop)
(push)
(assert (le x0 java.lang.StringBuffer))
(check-sat)
(pop)
(push)
(assert (not (le x0 java.lang.StringBuffer)))
(check-sat)
(push)
(assert (le x2 java.lang.StringBuffer))
(check-sat)
(push)
(assert (le x2 java.lang.StringBuffer))
(check-sat)
(pop)
(push)
(assert (not (le x2 java.lang.StringBuffer)))
(check-sat)
(pop)
(push)
(assert (le x0 java.lang.StringBuffer))
(check-sat)
(pop)
(push)
(assert (not (le x0 java.lang.StringBuffer)))
(check-sat)
(pop)
(push)
(assert (le x0 java.lang.StringBuffer))
(check-sat)
(pop)
(push)
(assert (not (le x0 java.lang.StringBuffer)))
(check-sat)
(pop)
(pop)
(push)
(assert (not (le x2 java.lang.StringBuffer)))
(check-sat)
(pop)
(push)
(assert (le x2 com.lowagie.text.pdf.ByteBuffer))
(check-sat)
(pop)
(push)
(assert (not (le x2 com.lowagie.text.pdf.ByteBuffer)))
(check-sat)
(pop)
(pop)
(push)
(assert (le x2 java.lang.StringBuffer))
(check-sat)
(pop)
(push)
(assert (not (le x2 java.lang.StringBuffer)))
(check-sat)
(push)
(assert (le x3 java.lang.StringBuffer))
(check-sat)
(pop)
(push)
(assert (not (le x3 java.lang.StringBuffer)))
(check-sat)
(pop)
(pop)
(push)
(assert (le x3 java.lang.StringBuffer))
(check-sat)
(pop)
(push)
(assert (not (le x3 java.lang.StringBuffer)))
(check-sat)
(push)
(assert (le x3 java.lang.StringBuffer))
(check-sat)
(pop)
(push)
(assert (not (le x3 java.lang.StringBuffer)))
(check-sat)
(push)
(assert (le x0 com.lowagie.text.pdf.PdfName))
(check-sat)
(pop)
(push)
(assert (not (le x0 com.lowagie.text.pdf.PdfName)))
(check-sat)
(pop)
(pop)
(pop)
(push)
(assert (le x0 java.lang.Object))
(check-sat)
(pop)
(push)
(assert (not (le x0 java.lang.Object)))
(check-sat)
(pop)
(push)
(assert (le x1 java.lang.StringBuffer))
(check-sat)
(push)
(assert (le x1 java.lang.StringBuffer))
(check-sat)
(pop)
(push)
(assert (not (le x1 java.lang.StringBuffer)))
(check-sat)
(pop)
(pop)
(push)
(assert (not (le x1 java.lang.StringBuffer)))
(check-sat)
(pop)
(push)
(assert (le x3 java.lang.StringBuffer))
(check-sat)
(pop)
(push)
(assert (not (le x3 java.lang.StringBuffer)))
(check-sat)
(push)
(assert (le x1 java.lang.StringBuffer))
(check-sat)
(pop)
(push)
(assert (not (le x1 java.lang.StringBuffer)))
(check-sat)
(pop)
(pop)
(push)
(assert (le x3 java.lang.StringBuffer))
(check-sat)
(pop)
(push)
(assert (not (le x3 java.lang.StringBuffer)))
(check-sat)
(pop)
(push)
(assert (le x2 com.lowagie.text.pdf.PdfArray))
(check-sat)
(push)
(assert (not (le x2 com.lowagie.text.pdf.PdfRectangle)))
(check-sat)
(push)
(assert (le x2 com.lowagie.text.pdf.PdfArray))
(check-sat)
(pop)
(push)
(assert (not (le x2 com.lowagie.text.pdf.PdfArray)))
(check-sat)
(pop)
(pop)
(pop)
(push)
(assert (le x2 com.lowagie.text.pdf.PdfRectangle))
(check-sat)
(pop)
(push)
(assert (le x3 java.lang.StringBuffer))
(check-sat)
(pop)
(push)
(assert (not (le x3 java.lang.StringBuffer)))
(check-sat)
(pop)
(push)
(assert (le x0 com.lowagie.text.pdf.PdfObject))
(check-sat)
(push)
(assert (le x3 java.lang.StringBuffer))
(check-sat)
(pop)
(push)
(assert (not (le x3 java.lang.StringBuffer)))
(check-sat)
(pop)
(pop)
(push)
(assert (not (le x0 com.lowagie.text.pdf.PdfObject)))
(check-sat)
(push)
(assert (le x1 java.lang.StringBuffer))
(check-sat)
(pop)
(push)
(assert (not (le x1 java.lang.StringBuffer)))
(check-sat)
(pop)
(pop)
(push)
(assert (le x1 java.lang.StringBuffer))
(check-sat)
(pop)
(push)
(assert (not (le x1 java.lang.StringBuffer)))
(check-sat)
(pop)
(push)
(assert (le x2 java.lang.String))
(check-sat)
(pop)
(push)
(assert (not (le x2 java.lang.String)))
(check-sat)
(pop)
(pop)
(push)
(assert (not (le x1 java.lang.StringBuffer)))
(check-sat)
(pop)
(push)
(assert (le x3 java.lang.StringBuffer))
(check-sat)
(pop)
(push)
(assert (not (le x3 java.lang.StringBuffer)))
(check-sat)
(pop)
(pop)
